NAME : 0
COMMENT : CVRP Instance
TYPE : CVRP
DIMENSION : 957
EDGE_WEIGHT_TYPE : EUC_2D
CAPACITY : 11
NODE_COORD_SECTION
1	737.0	450.0
2	235.0	789.0
3	340.0	234.0
4	346.0	320.0
5	406.0	309.0
6	556.0	636.0
7	872.0	923.0
8	937.0	83.0
9	9.0	321.0
10	558.0	18.0
11	63.0	833.0
12	250.0	509.0
13	143.0	192.0
14	624.0	286.0
15	364.0	117.0
16	332.0	953.0
17	235.0	142.0
18	590.0	430.0
19	303.0	692.0
20	936.0	665.0
21	39.0	410.0
22	247.0	581.0
23	986.0	739.0
24	11.0	283.0
25	138.0	747.0
26	837.0	511.0
27	596.0	206.0
28	218.0	339.0
29	443.0	922.0
30	555.0	133.0
31	896.0	306.0
32	415.0	752.0
33	691.0	216.0
34	51.0	0.0
35	726.0	19.0
36	166.0	333.0
37	951.0	932.0
38	928.0	807.0
39	505.0	590.0
40	236.0	284.0
41	115.0	882.0
42	238.0	887.0
43	729.0	26.0
44	94.0	697.0
45	409.0	899.0
46	993.0	715.0
47	473.0	607.0
48	414.0	55.0
49	884.0	327.0
50	651.0	407.0
51	891.0	372.0
52	570.0	733.0
53	919.0	529.0
54	629.0	220.0
55	711.0	630.0
56	141.0	492.0
57	720.0	382.0
58	794.0	51.0
59	745.0	451.0
60	409.0	990.0
61	825.0	781.0
62	966.0	938.0
63	378.0	175.0
64	859.0	269.0
65	596.0	131.0
66	419.0	557.0
67	77.0	908.0
68	679.0	268.0
69	726.0	860.0
70	382.0	728.0
71	885.0	15.0
72	258.0	313.0
73	734.0	905.0
74	533.0	912.0
75	924.0	636.0
76	694.0	621.0
77	469.0	223.0
78	507.0	707.0
79	892.0	168.0
80	281.0	800.0
81	607.0	285.0
82	388.0	354.0
83	568.0	781.0
84	22.0	348.0
85	153.0	579.0
86	218.0	236.0
87	308.0	904.0
88	119.0	154.0
89	939.0	105.0
90	489.0	374.0
91	547.0	736.0
92	480.0	1000.0
93	124.0	883.0
94	647.0	930.0
95	295.0	741.0
96	213.0	53.0
97	701.0	446.0
98	589.0	708.0
99	644.0	147.0
100	133.0	377.0
101	983.0	343.0
102	169.0	651.0
103	262.0	450.0
104	255.0	422.0
105	115.0	640.0
106	693.0	344.0
107	896.0	910.0
108	298.0	531.0
109	573.0	416.0
110	416.0	512.0
111	870.0	50.0
112	185.0	436.0
113	656.0	268.0
114	53.0	522.0
115	587.0	165.0
116	542.0	762.0
117	995.0	809.0
118	266.0	878.0
119	27.0	812.0
120	196.0	522.0
121	45.0	164.0
122	174.0	729.0
123	252.0	311.0
124	681.0	621.0
125	594.0	478.0
126	848.0	361.0
127	897.0	253.0
128	729.0	354.0
129	255.0	410.0
130	811.0	703.0
131	677.0	991.0
132	781.0	909.0
133	971.0	632.0
134	540.0	824.0
135	887.0	144.0
136	475.0	860.0
137	509.0	336.0
138	967.0	433.0
139	897.0	98.0
140	157.0	676.0
141	971.0	727.0
142	972.0	381.0
143	658.0	504.0
144	375.0	214.0
145	280.0	526.0
146	895.0	158.0
147	196.0	779.0
148	379.0	223.0
149	692.0	470.0
150	22.0	395.0
151	119.0	604.0
152	622.0	843.0
153	289.0	811.0
154	98.0	365.0
155	111.0	426.0
156	261.0	101.0
157	483.0	818.0
158	820.0	480.0
159	433.0	961.0
160	656.0	421.0
161	511.0	273.0
162	334.0	794.0
163	426.0	686.0
164	870.0	112.0
165	941.0	978.0
166	744.0	498.0
167	7.0	346.0
168	168.0	877.0
169	166.0	244.0
170	604.0	430.0
171	176.0	452.0
172	522.0	306.0
173	912.0	406.0
174	423.0	564.0
175	505.0	779.0
176	101.0	383.0
177	729.0	307.0
178	162.0	515.0
179	647.0	869.0
180	784.0	983.0
181	496.0	811.0
182	736.0	39.0
183	833.0	529.0
184	646.0	367.0
185	922.0	294.0
186	513.0	535.0
187	373.0	331.0
188	471.0	694.0
189	39.0	149.0
190	813.0	538.0
191	153.0	115.0
192	244.0	505.0
193	716.0	286.0
194	409.0	228.0
195	140.0	484.0
196	652.0	239.0
197	141.0	628.0
198	30.0	924.0
199	877.0	307.0
200	586.0	723.0
201	336.0	615.0
202	856.0	584.0
203	984.0	221.0
204	641.0	671.0
205	648.0	704.0
206	19.0	309.0
207	661.0	125.0
208	614.0	194.0
209	253.0	864.0
210	106.0	841.0
211	187.0	687.0
212	5.0	289.0
213	657.0	83.0
214	658.0	58.0
215	419.0	839.0
216	519.0	347.0
217	191.0	864.0
218	666.0	486.0
219	288.0	276.0
220	562.0	646.0
221	516.0	725.0
222	75.0	785.0
223	309.0	966.0
224	743.0	856.0
225	121.0	698.0
226	286.0	258.0
227	70.0	635.0
228	376.0	539.0
229	824.0	834.0
230	650.0	350.0
231	742.0	277.0
232	977.0	647.0
233	268.0	698.0
234	973.0	145.0
235	569.0	655.0
236	765.0	22.0
237	427.0	869.0
238	11.0	869.0
239	377.0	793.0
240	162.0	897.0
241	102.0	444.0
242	979.0	386.0
243	69.0	483.0
244	294.0	395.0
245	424.0	536.0
246	37.0	705.0
247	126.0	782.0
248	490.0	30.0
249	348.0	771.0
250	808.0	469.0
251	107.0	512.0
252	782.0	207.0
253	161.0	793.0
254	859.0	469.0
255	148.0	763.0
256	403.0	723.0
257	978.0	760.0
258	214.0	132.0
259	467.0	387.0
260	292.0	262.0
261	238.0	846.0
262	853.0	27.0
263	855.0	506.0
264	591.0	902.0
265	213.0	742.0
266	203.0	364.0
267	183.0	3.0
268	143.0	608.0
269	501.0	152.0
270	649.0	492.0
271	904.0	31.0
272	997.0	741.0
273	527.0	299.0
274	26.0	402.0
275	543.0	506.0
276	902.0	548.0
277	47.0	419.0
278	125.0	226.0
279	206.0	608.0
280	811.0	668.0
281	643.0	265.0
282	189.0	736.0
283	79.0	287.0
284	382.0	630.0
285	225.0	604.0
286	412.0	843.0
287	924.0	756.0
288	474.0	356.0
289	533.0	721.0
290	445.0	101.0
291	579.0	994.0
292	652.0	658.0
293	633.0	914.0
294	889.0	206.0
295	464.0	243.0
296	680.0	735.0
297	420.0	998.0
298	798.0	490.0
299	75.0	518.0
300	27.0	680.0
301	118.0	804.0
302	181.0	428.0
303	489.0	91.0
304	367.0	977.0
305	777.0	679.0
306	501.0	137.0
307	856.0	6.0
308	75.0	999.0
309	777.0	984.0
310	171.0	874.0
311	909.0	569.0
312	730.0	509.0
313	326.0	596.0
314	59.0	533.0
315	455.0	853.0
316	612.0	163.0
317	959.0	409.0
318	987.0	154.0
319	883.0	195.0
320	207.0	6.0
321	39.0	831.0
322	227.0	416.0
323	657.0	701.0
324	703.0	976.0
325	260.0	286.0
326	6.0	135.0
327	821.0	740.0
328	491.0	397.0
329	140.0	716.0
330	6.0	773.0
331	497.0	447.0
332	666.0	487.0
333	529.0	74.0
334	860.0	929.0
335	384.0	223.0
336	524.0	854.0
337	102.0	833.0
338	653.0	843.0
339	260.0	234.0
340	66.0	997.0
341	864.0	478.0
342	425.0	897.0
343	482.0	914.0
344	497.0	805.0
345	646.0	13.0
346	670.0	113.0
347	483.0	458.0
348	722.0	56.0
349	611.0	456.0
350	832.0	655.0
351	275.0	331.0
352	851.0	924.0
353	746.0	341.0
354	811.0	324.0
355	950.0	762.0
356	697.0	467.0
357	368.0	215.0
358	458.0	65.0
359	174.0	245.0
360	277.0	138.0
361	624.0	145.0
362	80.0	463.0
363	696.0	41.0
364	309.0	279.0
365	985.0	212.0
366	934.0	241.0
367	839.0	676.0
368	717.0	623.0
369	752.0	11.0
370	732.0	768.0
371	5.0	440.0
372	125.0	793.0
373	556.0	154.0
374	137.0	547.0
375	178.0	892.0
376	363.0	804.0
377	855.0	769.0
378	269.0	726.0
379	415.0	353.0
380	961.0	560.0
381	432.0	998.0
382	197.0	594.0
383	354.0	413.0
384	655.0	357.0
385	903.0	500.0
386	446.0	77.0
387	710.0	425.0
388	883.0	381.0
389	208.0	950.0
390	493.0	246.0
391	776.0	9.0
392	286.0	208.0
393	119.0	538.0
394	267.0	810.0
395	924.0	550.0
396	207.0	306.0
397	734.0	468.0
398	654.0	618.0
399	102.0	700.0
400	196.0	533.0
401	978.0	464.0
402	987.0	161.0
403	342.0	874.0
404	501.0	638.0
405	105.0	260.0
406	557.0	72.0
407	246.0	754.0
408	577.0	758.0
409	200.0	110.0
410	107.0	621.0
411	501.0	789.0
412	581.0	925.0
413	672.0	281.0
414	333.0	221.0
415	366.0	691.0
416	871.0	557.0
417	759.0	559.0
418	384.0	926.0
419	184.0	941.0
420	512.0	969.0
421	29.0	740.0
422	361.0	929.0
423	874.0	282.0
424	769.0	858.0
425	878.0	141.0
426	820.0	64.0
427	429.0	224.0
428	611.0	820.0
429	26.0	93.0
430	268.0	308.0
431	426.0	545.0
432	211.0	836.0
433	28.0	441.0
434	669.0	276.0
435	519.0	784.0
436	445.0	780.0
437	762.0	46.0
438	935.0	724.0
439	937.0	750.0
440	390.0	916.0
441	934.0	288.0
442	435.0	47.0
443	990.0	14.0
444	830.0	399.0
445	581.0	559.0
446	490.0	787.0
447	564.0	416.0
448	748.0	774.0
449	566.0	767.0
450	873.0	118.0
451	626.0	559.0
452	833.0	478.0
453	82.0	836.0
454	311.0	362.0
455	718.0	313.0
456	975.0	337.0
457	148.0	207.0
458	986.0	476.0
459	463.0	313.0
460	769.0	67.0
461	114.0	335.0
462	28.0	562.0
463	59.0	461.0
464	12.0	780.0
465	154.0	192.0
466	27.0	360.0
467	787.0	422.0
468	206.0	469.0
469	774.0	765.0
470	521.0	751.0
471	499.0	129.0
472	52.0	528.0
473	304.0	554.0
474	502.0	257.0
475	131.0	279.0
476	960.0	233.0
477	408.0	79.0
478	917.0	541.0
479	195.0	837.0
480	536.0	257.0
481	573.0	374.0
482	163.0	907.0
483	282.0	530.0
484	143.0	982.0
485	182.0	1000.0
486	506.0	298.0
487	410.0	452.0
488	495.0	313.0
489	577.0	549.0
490	474.0	280.0
491	295.0	775.0
492	179.0	898.0
493	626.0	568.0
494	196.0	516.0
495	754.0	367.0
496	53.0	627.0
497	263.0	962.0
498	252.0	558.0
499	122.0	892.0
500	657.0	277.0
501	267.0	505.0
502	234.0	594.0
503	366.0	471.0
504	197.0	863.0
505	512.0	375.0
506	239.0	454.0
507	541.0	224.0
508	601.0	365.0
509	505.0	354.0
510	500.0	422.0
511	707.0	336.0
512	273.0	546.0
513	527.0	276.0
514	322.0	525.0
515	91.0	411.0
516	85.0	871.0
517	688.0	231.0
518	320.0	507.0
519	526.0	472.0
520	477.0	320.0
521	329.0	491.0
522	196.0	877.0
523	172.0	870.0
524	584.0	428.0
525	598.0	346.0
526	476.0	354.0
527	180.0	863.0
528	473.0	213.0
529	422.0	21.0
530	192.0	866.0
531	594.0	342.0
532	218.0	531.0
533	533.0	262.0
534	330.0	99.0
535	141.0	952.0
536	608.0	516.0
537	554.0	243.0
538	435.0	353.0
539	209.0	560.0
540	408.0	228.0
541	241.0	919.0
542	80.0	811.0
543	513.0	278.0
544	429.0	712.0
545	458.0	313.0
546	330.0	226.0
547	148.0	941.0
548	468.0	293.0
549	247.0	375.0
550	619.0	32.0
551	671.0	277.0
552	382.0	441.0
553	403.0	542.0
554	521.0	294.0
555	522.0	435.0
556	473.0	216.0
557	572.0	236.0
558	224.0	863.0
559	550.0	379.0
560	183.0	428.0
561	568.0	347.0
562	156.0	944.0
563	555.0	327.0
564	293.0	641.0
565	568.0	173.0
566	529.0	560.0
567	532.0	163.0
568	760.0	446.0
569	564.0	214.0
570	240.0	624.0
571	431.0	401.0
572	719.0	272.0
573	493.0	338.0
574	513.0	305.0
575	58.0	940.0
576	569.0	412.0
577	357.0	402.0
578	495.0	188.0
579	618.0	412.0
580	194.0	844.0
581	416.0	250.0
582	610.0	341.0
583	788.0	91.0
584	275.0	569.0
585	658.0	479.0
586	231.0	504.0
587	93.0	683.0
588	648.0	191.0
589	155.0	877.0
590	692.0	379.0
591	291.0	501.0
592	603.0	359.0
593	65.0	935.0
594	308.0	1000.0
595	655.0	499.0
596	605.0	328.0
597	750.0	582.0
598	588.0	234.0
599	601.0	327.0
600	488.0	236.0
601	505.0	403.0
602	565.0	242.0
603	566.0	428.0
604	599.0	351.0
605	68.0	979.0
606	199.0	868.0
607	574.0	331.0
608	177.0	583.0
609	246.0	760.0
610	233.0	820.0
611	450.0	497.0
612	369.0	620.0
613	98.0	932.0
614	164.0	880.0
615	378.0	219.0
616	183.0	868.0
617	528.0	489.0
618	228.0	852.0
619	381.0	89.0
620	355.0	930.0
621	235.0	927.0
622	458.0	212.0
623	532.0	252.0
624	529.0	385.0
625	179.0	971.0
626	228.0	583.0
627	481.0	409.0
628	250.0	951.0
629	550.0	450.0
630	516.0	526.0
631	250.0	804.0
632	535.0	225.0
633	209.0	808.0
634	275.0	671.0
635	170.0	388.0
636	514.0	280.0
637	692.0	415.0
638	405.0	186.0
639	494.0	319.0
640	527.0	341.0
641	655.0	311.0
642	514.0	583.0
643	208.0	584.0
644	625.0	472.0
645	280.0	735.0
646	368.0	535.0
647	3.0	597.0
648	74.0	556.0
649	492.0	190.0
650	644.0	366.0
651	125.0	280.0
652	512.0	487.0
653	491.0	334.0
654	558.0	227.0
655	306.0	641.0
656	516.0	417.0
657	130.0	940.0
658	728.0	321.0
659	586.0	250.0
660	163.0	510.0
661	325.0	804.0
662	634.0	395.0
663	497.0	506.0
664	277.0	608.0
665	354.0	927.0
666	205.0	986.0
667	570.0	356.0
668	610.0	370.0
669	582.0	278.0
670	264.0	442.0
671	141.0	967.0
672	292.0	250.0
673	286.0	573.0
674	102.0	989.0
675	113.0	287.0
676	93.0	921.0
677	558.0	356.0
678	501.0	576.0
679	252.0	987.0
680	670.0	319.0
681	500.0	304.0
682	479.0	583.0
683	74.0	907.0
684	88.0	945.0
685	461.0	302.0
686	299.0	562.0
687	139.0	808.0
688	576.0	358.0
689	540.0	167.0
690	619.0	292.0
691	588.0	254.0
692	678.0	278.0
693	337.0	525.0
694	327.0	517.0
695	410.0	380.0
696	447.0	579.0
697	214.0	521.0
698	537.0	246.0
699	596.0	421.0
700	131.0	919.0
701	711.0	456.0
702	333.0	359.0
703	668.0	356.0
704	225.0	531.0
705	320.0	932.0
706	566.0	207.0
707	238.0	331.0
708	344.0	596.0
709	544.0	305.0
710	316.0	530.0
711	666.0	352.0
712	671.0	214.0
713	508.0	266.0
714	389.0	596.0
715	408.0	282.0
716	198.0	849.0
717	439.0	346.0
718	186.0	797.0
719	407.0	355.0
720	184.0	615.0
721	642.0	467.0
722	226.0	880.0
723	557.0	251.0
724	252.0	556.0
725	192.0	502.0
726	637.0	316.0
727	494.0	209.0
728	282.0	556.0
729	362.0	596.0
730	123.0	748.0
731	405.0	524.0
732	579.0	333.0
733	604.0	519.0
734	500.0	194.0
735	578.0	394.0
736	290.0	691.0
737	16.0	824.0
738	122.0	921.0
739	664.0	191.0
740	482.0	371.0
741	508.0	82.0
742	478.0	725.0
743	521.0	464.0
744	115.0	585.0
745	461.0	356.0
746	630.0	209.0
747	499.0	288.0
748	503.0	407.0
749	643.0	278.0
750	670.0	494.0
751	215.0	911.0
752	571.0	374.0
753	519.0	219.0
754	270.0	798.0
755	554.0	399.0
756	514.0	232.0
757	139.0	900.0
758	212.0	485.0
759	481.0	272.0
760	565.0	323.0
761	84.0	435.0
762	508.0	204.0
763	608.0	283.0
764	474.0	478.0
765	613.0	272.0
766	526.0	251.0
767	275.0	474.0
768	549.0	526.0
769	128.0	956.0
770	229.0	882.0
771	253.0	521.0
772	63.0	939.0
773	622.0	245.0
774	656.0	232.0
775	116.0	930.0
776	277.0	581.0
777	253.0	812.0
778	171.0	909.0
779	454.0	558.0
780	597.0	343.0
781	176.0	526.0
782	397.0	522.0
783	660.0	200.0
784	532.0	255.0
785	574.0	213.0
786	319.0	535.0
787	688.0	407.0
788	470.0	141.0
789	475.0	401.0
790	133.0	913.0
791	131.0	896.0
792	606.0	292.0
793	623.0	382.0
794	509.0	413.0
795	168.0	834.0
796	626.0	343.0
797	344.0	495.0
798	300.0	624.0
799	178.0	795.0
800	321.0	965.0
801	437.0	899.0
802	470.0	151.0
803	343.0	576.0
804	265.0	545.0
805	643.0	266.0
806	242.0	679.0
807	592.0	292.0
808	563.0	318.0
809	553.0	284.0
810	398.0	315.0
811	356.0	814.0
812	333.0	236.0
813	508.0	179.0
814	460.0	532.0
815	267.0	520.0
816	618.0	473.0
817	237.0	292.0
818	564.0	407.0
819	477.0	269.0
820	480.0	478.0
821	0.0	879.0
822	271.0	557.0
823	568.0	415.0
824	520.0	320.0
825	644.0	280.0
826	299.0	943.0
827	377.0	474.0
828	282.0	495.0
829	642.0	304.0
830	410.0	533.0
831	699.0	373.0
832	320.0	373.0
833	223.0	972.0
834	266.0	512.0
835	451.0	452.0
836	661.0	386.0
837	155.0	908.0
838	283.0	574.0
839	504.0	387.0
840	329.0	539.0
841	583.0	527.0
842	198.0	544.0
843	387.0	439.0
844	599.0	274.0
845	554.0	410.0
846	649.0	140.0
847	715.0	73.0
848	349.0	471.0
849	664.0	345.0
850	542.0	330.0
851	546.0	320.0
852	214.0	857.0
853	583.0	268.0
854	531.0	224.0
855	270.0	955.0
856	182.0	583.0
857	70.0	547.0
858	154.0	923.0
859	751.0	545.0
860	325.0	263.0
861	562.0	311.0
862	587.0	472.0
863	331.0	307.0
864	558.0	377.0
865	159.0	909.0
866	562.0	324.0
867	563.0	275.0
868	386.0	644.0
869	621.0	387.0
870	656.0	400.0
871	120.0	907.0
872	260.0	910.0
873	343.0	471.0
874	467.0	416.0
875	571.0	350.0
876	534.0	235.0
877	632.0	287.0
878	327.0	472.0
879	498.0	312.0
880	292.0	527.0
881	564.0	368.0
882	417.0	404.0
883	473.0	358.0
884	44.0	941.0
885	323.0	246.0
886	683.0	364.0
887	289.0	536.0
888	347.0	492.0
889	156.0	911.0
890	183.0	553.0
891	613.0	381.0
892	514.0	281.0
893	293.0	971.0
894	171.0	190.0
895	168.0	960.0
896	410.0	446.0
897	146.0	893.0
898	208.0	941.0
899	244.0	521.0
900	340.0	856.0
901	516.0	521.0
902	596.0	289.0
903	599.0	257.0
904	366.0	504.0
905	391.0	390.0
906	602.0	631.0
907	453.0	376.0
908	367.0	488.0
909	448.0	189.0
910	563.0	289.0
911	599.0	328.0
912	530.0	131.0
913	509.0	482.0
914	340.0	432.0
915	242.0	924.0
916	424.0	414.0
917	186.0	848.0
918	658.0	496.0
919	452.0	224.0
920	401.0	652.0
921	145.0	832.0
922	574.0	238.0
923	254.0	592.0
924	477.0	236.0
925	150.0	541.0
926	224.0	670.0
927	583.0	361.0
928	521.0	244.0
929	125.0	870.0
930	649.0	282.0
931	204.0	917.0
932	280.0	550.0
933	571.0	243.0
934	594.0	407.0
935	501.0	372.0
936	634.0	289.0
937	608.0	220.0
938	307.0	478.0
939	618.0	428.0
940	532.0	276.0
941	47.0	856.0
942	569.0	319.0
943	300.0	609.0
944	348.0	569.0
945	351.0	637.0
946	562.0	210.0
947	708.0	471.0
948	212.0	920.0
949	448.0	523.0
950	320.0	640.0
951	451.0	379.0
952	294.0	497.0
953	616.0	295.0
954	249.0	810.0
955	299.0	505.0
956	550.0	289.0
957	347.0	720.0
DEMAND_SECTION
1	0
2	1
3	1
4	1
5	1
6	1
7	1
8	1
9	1
10	1
11	1
12	1
13	1
14	1
15	1
16	1
17	1
18	1
19	1
20	1
21	1
22	1
23	1
24	1
25	1
26	1
27	1
28	1
29	1
30	1
31	1
32	1
33	1
34	1
35	1
36	1
37	1
38	1
39	1
40	1
41	1
42	1
43	1
44	1
45	1
46	1
47	1
48	1
49	1
50	1
51	1
52	1
53	1
54	1
55	1
56	1
57	1
58	1
59	1
60	1
61	1
62	1
63	1
64	1
65	1
66	1
67	1
68	1
69	1
70	1
71	1
72	1
73	1
74	1
75	1
76	1
77	1
78	1
79	1
80	1
81	1
82	1
83	1
84	1
85	1
86	1
87	1
88	1
89	1
90	1
91	1
92	1
93	1
94	1
95	1
96	1
97	1
98	1
99	1
100	1
101	1
102	1
103	1
104	1
105	1
106	1
107	1
108	1
109	1
110	1
111	1
112	1
113	1
114	1
115	1
116	1
117	1
118	1
119	1
120	1
121	1
122	1
123	1
124	1
125	1
126	1
127	1
128	1
129	1
130	1
131	1
132	1
133	1
134	1
135	1
136	1
137	1
138	1
139	1
140	1
141	1
142	1
143	1
144	1
145	1
146	1
147	1
148	1
149	1
150	1
151	1
152	1
153	1
154	1
155	1
156	1
157	1
158	1
159	1
160	1
161	1
162	1
163	1
164	1
165	1
166	1
167	1
168	1
169	1
170	1
171	1
172	1
173	1
174	1
175	1
176	1
177	1
178	1
179	1
180	1
181	1
182	1
183	1
184	1
185	1
186	1
187	1
188	1
189	1
190	1
191	1
192	1
193	1
194	1
195	1
196	1
197	1
198	1
199	1
200	1
201	1
202	1
203	1
204	1
205	1
206	1
207	1
208	1
209	1
210	1
211	1
212	1
213	1
214	1
215	1
216	1
217	1
218	1
219	1
220	1
221	1
222	1
223	1
224	1
225	1
226	1
227	1
228	1
229	1
230	1
231	1
232	1
233	1
234	1
235	1
236	1
237	1
238	1
239	1
240	1
241	1
242	1
243	1
244	1
245	1
246	1
247	1
248	1
249	1
250	1
251	1
252	1
253	1
254	1
255	1
256	1
257	1
258	1
259	1
260	1
261	1
262	1
263	1
264	1
265	1
266	1
267	1
268	1
269	1
270	1
271	1
272	1
273	1
274	1
275	1
276	1
277	1
278	1
279	1
280	1
281	1
282	1
283	1
284	1
285	1
286	1
287	1
288	1
289	1
290	1
291	1
292	1
293	1
294	1
295	1
296	1
297	1
298	1
299	1
300	1
301	1
302	1
303	1
304	1
305	1
306	1
307	1
308	1
309	1
310	1
311	1
312	1
313	1
314	1
315	1
316	1
317	1
318	1
319	1
320	1
321	1
322	1
323	1
324	1
325	1
326	1
327	1
328	1
329	1
330	1
331	1
332	1
333	1
334	1
335	1
336	1
337	1
338	1
339	1
340	1
341	1
342	1
343	1
344	1
345	1
346	1
347	1
348	1
349	1
350	1
351	1
352	1
353	1
354	1
355	1
356	1
357	1
358	1
359	1
360	1
361	1
362	1
363	1
364	1
365	1
366	1
367	1
368	1
369	1
370	1
371	1
372	1
373	1
374	1
375	1
376	1
377	1
378	1
379	1
380	1
381	1
382	1
383	1
384	1
385	1
386	1
387	1
388	1
389	1
390	1
391	1
392	1
393	1
394	1
395	1
396	1
397	1
398	1
399	1
400	1
401	1
402	1
403	1
404	1
405	1
406	1
407	1
408	1
409	1
410	1
411	1
412	1
413	1
414	1
415	1
416	1
417	1
418	1
419	1
420	1
421	1
422	1
423	1
424	1
425	1
426	1
427	1
428	1
429	1
430	1
431	1
432	1
433	1
434	1
435	1
436	1
437	1
438	1
439	1
440	1
441	1
442	1
443	1
444	1
445	1
446	1
447	1
448	1
449	1
450	1
451	1
452	1
453	1
454	1
455	1
456	1
457	1
458	1
459	1
460	1
461	1
462	1
463	1
464	1
465	1
466	1
467	1
468	1
469	1
470	1
471	1
472	1
473	1
474	1
475	1
476	1
477	1
478	1
479	1
480	1
481	1
482	1
483	1
484	1
485	1
486	1
487	1
488	1
489	1
490	1
491	1
492	1
493	1
494	1
495	1
496	1
497	1
498	1
499	1
500	1
501	1
502	1
503	1
504	1
505	1
506	1
507	1
508	1
509	1
510	1
511	1
512	1
513	1
514	1
515	1
516	1
517	1
518	1
519	1
520	1
521	1
522	1
523	1
524	1
525	1
526	1
527	1
528	1
529	1
530	1
531	1
532	1
533	1
534	1
535	1
536	1
537	1
538	1
539	1
540	1
541	1
542	1
543	1
544	1
545	1
546	1
547	1
548	1
549	1
550	1
551	1
552	1
553	1
554	1
555	1
556	1
557	1
558	1
559	1
560	1
561	1
562	1
563	1
564	1
565	1
566	1
567	1
568	1
569	1
570	1
571	1
572	1
573	1
574	1
575	1
576	1
577	1
578	1
579	1
580	1
581	1
582	1
583	1
584	1
585	1
586	1
587	1
588	1
589	1
590	1
591	1
592	1
593	1
594	1
595	1
596	1
597	1
598	1
599	1
600	1
601	1
602	1
603	1
604	1
605	1
606	1
607	1
608	1
609	1
610	1
611	1
612	1
613	1
614	1
615	1
616	1
617	1
618	1
619	1
620	1
621	1
622	1
623	1
624	1
625	1
626	1
627	1
628	1
629	1
630	1
631	1
632	1
633	1
634	1
635	1
636	1
637	1
638	1
639	1
640	1
641	1
642	1
643	1
644	1
645	1
646	1
647	1
648	1
649	1
650	1
651	1
652	1
653	1
654	1
655	1
656	1
657	1
658	1
659	1
660	1
661	1
662	1
663	1
664	1
665	1
666	1
667	1
668	1
669	1
670	1
671	1
672	1
673	1
674	1
675	1
676	1
677	1
678	1
679	1
680	1
681	1
682	1
683	1
684	1
685	1
686	1
687	1
688	1
689	1
690	1
691	1
692	1
693	1
694	1
695	1
696	1
697	1
698	1
699	1
700	1
701	1
702	1
703	1
704	1
705	1
706	1
707	1
708	1
709	1
710	1
711	1
712	1
713	1
714	1
715	1
716	1
717	1
718	1
719	1
720	1
721	1
722	1
723	1
724	1
725	1
726	1
727	1
728	1
729	1
730	1
731	1
732	1
733	1
734	1
735	1
736	1
737	1
738	1
739	1
740	1
741	1
742	1
743	1
744	1
745	1
746	1
747	1
748	1
749	1
750	1
751	1
752	1
753	1
754	1
755	1
756	1
757	1
758	1
759	1
760	1
761	1
762	1
763	1
764	1
765	1
766	1
767	1
768	1
769	1
770	1
771	1
772	1
773	1
774	1
775	1
776	1
777	1
778	1
779	1
780	1
781	1
782	1
783	1
784	1
785	1
786	1
787	1
788	1
789	1
790	1
791	1
792	1
793	1
794	1
795	1
796	1
797	1
798	1
799	1
800	1
801	1
802	1
803	1
804	1
805	1
806	1
807	1
808	1
809	1
810	1
811	1
812	1
813	1
814	1
815	1
816	1
817	1
818	1
819	1
820	1
821	1
822	1
823	1
824	1
825	1
826	1
827	1
828	1
829	1
830	1
831	1
832	1
833	1
834	1
835	1
836	1
837	1
838	1
839	1
840	1
841	1
842	1
843	1
844	1
845	1
846	1
847	1
848	1
849	1
850	1
851	1
852	1
853	1
854	1
855	1
856	1
857	1
858	1
859	1
860	1
861	1
862	1
863	1
864	1
865	1
866	1
867	1
868	1
869	1
870	1
871	1
872	1
873	1
874	1
875	1
876	1
877	1
878	1
879	1
880	1
881	1
882	1
883	1
884	1
885	1
886	1
887	1
888	1
889	1
890	1
891	1
892	1
893	1
894	1
895	1
896	1
897	1
898	1
899	1
900	1
901	1
902	1
903	1
904	1
905	1
906	1
907	1
908	1
909	1
910	1
911	1
912	1
913	1
914	1
915	1
916	1
917	1
918	1
919	1
920	1
921	1
922	1
923	1
924	1
925	1
926	1
927	1
928	1
929	1
930	1
931	1
932	1
933	1
934	1
935	1
936	1
937	1
938	1
939	1
940	1
941	1
942	1
943	1
944	1
945	1
946	1
947	1
948	1
949	1
950	1
951	1
952	1
953	1
954	1
955	1
956	1
957	1
DEPOT_SECTION
1
-1
EOF
